; Copyright (c) 2026 The RIINA Authors. All rights reserved.
; Copyright (c) 2026 The RIINA Authors.
; Auto-generated from 02_FORMAL/coq/domains/mobile_os/VoiceAssistant.v (24 assertions)
; Generated by scripts/generate-full-stack.py
; Module: VoiceAssistant

(set-logic ALL)
(set-option :produce-models true)

; VoiceIntent (matches Coq: Inductive VoiceIntent)
(declare-datatypes ((VoiceIntent 0)) (((PlayMusic) (SetTimer) (SendMessage) (SearchWeb) (UnknownIntent))))

; VoiceInput (matches Coq: Record VoiceInput)
(declare-datatypes ((VoiceInput 0))
  (((mk-voice_input (voice_id Int) (voice_audio AudioSample) (voice_language Int) (voice_processed_locally Bool)))))

; RecognitionResult (matches Coq: Record RecognitionResult)
(declare-datatypes ((RecognitionResult 0))
  (((mk-recognition_result (recog_transcript Transcript) (recog_confidence Int) (recog_processed_on_device Bool)))))

; VoiceProcessing (matches Coq: Record VoiceProcessing)
(declare-datatypes ((VoiceProcessing 0))
  (((mk-voice_processing (vp_audio_id Int) (vp_processed_locally Bool) (vp_data_sent_to_server Bool)))))

; WakeWordDetector (matches Coq: Record WakeWordDetector)
(declare-datatypes ((WakeWordDetector 0))
  (((mk-wake_word_detector (ww_model_on_device Bool) (ww_always_listening Bool) (ww_buffer_size_ms Int) (ww_max_buffer_ms Int)))))

; AudioLifecycle (matches Coq: Record AudioLifecycle)
(declare-datatypes ((AudioLifecycle 0))
  (((mk-audio_lifecycle (al_audio_id Int) (al_processing_complete Bool) (al_audio_deleted Bool) (al_retention_seconds Int)))))

; VoiceCommand (matches Coq: Record VoiceCommand)
(declare-datatypes ((VoiceCommand 0))
  (((mk-voice_command (vc_transcript list) (vc_intent VoiceIntent) (vc_intent_validated Bool) (vc_confidence Int)))))

; SpeechRecognition (matches Coq: Record SpeechRecognition)
(declare-datatypes ((SpeechRecognition 0))
  (((mk-speech_recognition (sr_language Int) (sr_supported_languages list) (sr_language_supported Bool)))))

; VoiceFeedback (matches Coq: Record VoiceFeedback)
(declare-datatypes ((VoiceFeedback 0))
  (((mk-voice_feedback (vf_response_type Int) (vf_appropriate Bool) (vf_volume_level Int) (vf_max_volume Int)))))

; VoicePermission (matches Coq: Record VoicePermission)
(declare-datatypes ((VoicePermission 0))
  (((mk-voice_permission (vperm_user_id Int) (vperm_microphone_granted Bool) (vperm_speech_granted Bool) (vperm_explicit Bool)))))

; ConversationContext (matches Coq: Record ConversationContext)
(declare-datatypes ((ConversationContext 0))
  (((mk-conversation_context (cc_turns list) (cc_max_turns Int) (cc_context_bounded Bool)))))

; VoiceAuth (matches Coq: Record VoiceAuth)
(declare-datatypes ((VoiceAuth 0))
  (((mk-voice_auth (va_user_id Int) (va_voiceprint_match Bool) (va_confidence Int) (va_min_confidence Int)))))

; NoiseCancellation (matches Coq: Record NoiseCancellation)
(declare-datatypes ((NoiseCancellation 0))
  (((mk-noise_cancellation (nc_input_snr Int) (nc_output_snr Int) (nc_improvement_bounded Bool)))))

; VoiceSynthesis (matches Coq: Record VoiceSynthesis)
(declare-datatypes ((VoiceSynthesis 0))
  (((mk-voice_synthesis (vs_quality_score Int) (vs_min_quality Int) (vs_synthesis_complete Bool)))))

; VoiceUndo (matches Coq: Record VoiceUndo)
(declare-datatypes ((VoiceUndo 0))
  (((mk-voice_undo (vu_command_id Int) (vu_undoable Bool) (vu_undo_window_seconds Int)))))

; AccessibilityVoiceControl (matches Coq: Record AccessibilityVoiceControl)
(declare-datatypes ((AccessibilityVoiceControl 0))
  (((mk-accessibility_voice_control (avc_enabled Bool) (avc_all_elements_reachable Bool) (avc_labels_complete Bool)))))

; DictationMode (matches Coq: Record DictationMode)
(declare-datatypes ((DictationMode 0))
  (((mk-dictation_mode (dm_privacy_mode Bool) (dm_server_processing Bool) (dm_auto_punctuation Bool)))))

; AudioSample (matches Coq: Definition AudioSample)
(define-fun AudioSample () Type true)

; TranscriptWord (matches Coq: Definition TranscriptWord)
(define-fun TranscriptWord () Type nat)

; Transcript (matches Coq: Definition Transcript)
(define-fun Transcript () Type true)

; recognize (matches Coq: Definition recognize)
(define-fun recognize ((v VoiceInput)) RecognitionResult
  true)

; voice_data_private (matches Coq: Definition voice_data_private)
(define-fun voice_data_private ((v VoiceInput)) Prop
  true)

; accuracy_threshold (matches Coq: Definition accuracy_threshold)
(define-fun accuracy_threshold () Int 90)

; accurate_voice_system (matches Coq: Definition accurate_voice_system)
(define-fun accurate_voice_system ((r RecognitionResult)) Prop
  true)

; private_voice_system (matches Coq: Definition private_voice_system)
(define-fun private_voice_system () Prop true)

; voice_data_processed_locally (matches Coq: Definition voice_data_processed_locally)
(define-fun voice_data_processed_locally ((vp VoiceProcessing)) Prop
  true)

; wake_word_on_device (matches Coq: Definition wake_word_on_device)
(define-fun wake_word_on_device ((ww WakeWordDetector)) Prop
  true)

; not_always_listening (matches Coq: Definition not_always_listening)
(define-fun not_always_listening ((ww WakeWordDetector)) Prop
  true)

; audio_deleted_after_processing (matches Coq: Definition audio_deleted_after_processing)
(define-fun audio_deleted_after_processing ((al AudioLifecycle)) Prop
  true)

; voice_command_intent_validated (matches Coq: Definition voice_command_intent_validated)
(define-fun voice_command_intent_validated ((vc VoiceCommand)) Prop
  true)

; speech_recognition_language_supported (matches Coq: Definition speech_recognition_language_supported)
(define-fun speech_recognition_language_supported ((sr SpeechRecognition)) Prop
  true)

; voice_feedback_appropriate (matches Coq: Definition voice_feedback_appropriate)
(define-fun voice_feedback_appropriate ((vf VoiceFeedback)) Prop
  true)

; voice_permission_explicit (matches Coq: Definition voice_permission_explicit)
(define-fun voice_permission_explicit ((vp VoicePermission)) Prop
  true)

; conversation_context_bounded (matches Coq: Definition conversation_context_bounded)
(define-fun conversation_context_bounded ((cc ConversationContext)) Prop
  true)

; voice_authentication_secure (matches Coq: Definition voice_authentication_secure)
(define-fun voice_authentication_secure ((va VoiceAuth)) Prop
  true)

; noise_cancellation_bounded (matches Coq: Definition noise_cancellation_bounded)
(define-fun noise_cancellation_bounded ((nc NoiseCancellation)) Prop
  true)

; voice_synthesis_quality_bounded (matches Coq: Definition voice_synthesis_quality_bounded)
(define-fun voice_synthesis_quality_bounded ((vs VoiceSynthesis)) Prop
  true)

; voice_command_undo_available (matches Coq: Definition voice_command_undo_available)
(define-fun voice_command_undo_available ((vu VoiceUndo)) Prop
  true)

; accessibility_voice_control_complete (matches Coq: Definition accessibility_voice_control_complete)
(define-fun accessibility_voice_control_complete ((avc AccessibilityVoiceControl)) Prop
  true)

; dictation_privacy_mode (matches Coq: Definition dictation_privacy_mode)
(define-fun dictation_privacy_mode ((dm DictationMode)) Prop
  true)

; voice_recognition_accurate (matches Coq: Theorem voice_recognition_accurate)
(assert (= true true)) ; voice_recognition_accurate [untranslatable]

; voice_data_stays_local (matches Coq: Theorem voice_data_stays_local)
(assert (= true true)) ; voice_data_stays_local [untranslatable]

; local_processing_preserves_privacy (matches Coq: Theorem local_processing_preserves_privacy)
(assert (= true true)) ; local_processing_preserves_privacy [untranslatable]

; recognition_reflects_locality (matches Coq: Theorem recognition_reflects_locality)
(assert (= true true)) ; recognition_reflects_locality [untranslatable]

; voice_data_processed_locally_thm (matches Coq: Theorem voice_data_processed_locally_thm)
(assert (= true true)) ; voice_data_processed_locally_thm [untranslatable]

; wake_word_detection_on_device (matches Coq: Theorem wake_word_detection_on_device)
(assert (= true true)) ; wake_word_detection_on_device [untranslatable]

; no_always_listening (matches Coq: Theorem no_always_listening)
(assert (= true true)) ; no_always_listening [untranslatable]

; audio_deleted_after_processing_thm (matches Coq: Theorem audio_deleted_after_processing_thm)
(assert (= true true)) ; audio_deleted_after_processing_thm [untranslatable]

; voice_command_intent_validated_thm (matches Coq: Theorem voice_command_intent_validated_thm)
(assert (= true true)) ; voice_command_intent_validated_thm [untranslatable]

; speech_recognition_language_supported_thm (matches Coq: Theorem speech_recognition_language_supported_thm)
(assert (= true true)) ; speech_recognition_language_supported_thm [untranslatable]

; voice_feedback_appropriate_thm (matches Coq: Theorem voice_feedback_appropriate_thm)
(assert (= true true)) ; voice_feedback_appropriate_thm [untranslatable]

; voice_permission_explicit_thm (matches Coq: Theorem voice_permission_explicit_thm)
(assert (= true true)) ; voice_permission_explicit_thm [untranslatable]

; conversation_context_bounded_thm (matches Coq: Theorem conversation_context_bounded_thm)
(assert (= true true)) ; conversation_context_bounded_thm [untranslatable]

; voice_authentication_secure_thm (matches Coq: Theorem voice_authentication_secure_thm)
(assert (= true true)) ; voice_authentication_secure_thm [untranslatable]

; noise_cancellation_bounded_thm (matches Coq: Theorem noise_cancellation_bounded_thm)
(assert (= true true)) ; noise_cancellation_bounded_thm [untranslatable]

; voice_synthesis_quality_bounded_thm (matches Coq: Theorem voice_synthesis_quality_bounded_thm)
(assert (= true true)) ; voice_synthesis_quality_bounded_thm [untranslatable]

; voice_command_undo_available_thm (matches Coq: Theorem voice_command_undo_available_thm)
(assert (= true true)) ; voice_command_undo_available_thm [untranslatable]

; accessibility_voice_control_complete_thm (matches Coq: Theorem accessibility_voice_control_complete_thm)
(assert (= true true)) ; accessibility_voice_control_complete_thm [untranslatable]

; dictation_privacy_mode_thm (matches Coq: Theorem dictation_privacy_mode_thm)
(assert (= true true)) ; dictation_privacy_mode_thm [untranslatable]

; voice_data_not_sent_to_server (matches Coq: Theorem voice_data_not_sent_to_server)
(assert (= true true)) ; voice_data_not_sent_to_server [untranslatable]

; voice_permission_requires_microphone (matches Coq: Theorem voice_permission_requires_microphone)
(assert (= true true)) ; voice_permission_requires_microphone [untranslatable]

; voice_command_known_intent (matches Coq: Theorem voice_command_known_intent)
(assert (= true true)) ; voice_command_known_intent [untranslatable]

; voice_undo_window_positive (matches Coq: Theorem voice_undo_window_positive)
(assert (= true true)) ; voice_undo_window_positive [untranslatable]

; accessibility_labels_complete (matches Coq: Theorem accessibility_labels_complete)
(assert (= true true)) ; accessibility_labels_complete [untranslatable]

; Verify all assertions are satisfiable
(check-sat)
(exit)
